benchmarks/bfuzz0/2425411230802279504119290163030925238.smt2
(set-logic QF_FP)
(declare-const x0 (_ FloatingPoint 8 24))
(declare-const x1 (_ FloatingPoint 8 24))
(declare-const x2 (_ FloatingPoint 8 24))
(declare-const x3 (_ FloatingPoint 8 24))
(declare-const x4 (_ FloatingPoint 8 24))
(declare-const x5 (_ FloatingPoint 8 24))
(declare-const x6 (_ FloatingPoint 8 24))
(declare-const x7 (_ FloatingPoint 8 24))
(declare-const x8 (_ FloatingPoint 8 24))
(declare-const x9 (_ FloatingPoint 8 24))
(declare-const x10 (_ FloatingPoint 8 24))
(declare-const x11 (_ FloatingPoint 8 24))
(declare-const x12 (_ FloatingPoint 8 24))
(assert (fp.eq (fp.neg (fp.mul RNE (fp.neg x2) (fp.neg x3))) (fp.mul RNE (fp.sub RNE (fp.mul RNE x1 x7) (fp.add RNE x12 x11)) (fp.div RNE (fp.mul RNE x5 x10) (fp.add RNE x11 x3)))))
(assert (fp.gt (fp.add RNE (fp.mul RNE (fp.add RNE x12 x4) (fp.mul RNE x0 x12)) (fp.mul RNE (fp.neg x6) (fp.mul RNE x7 x4))) (fp.div RNE (fp.div RNE (fp.div RNE x12 x11) (fp.sub RNE x9 x3)) (fp.add RNE (fp.mul RNE x8 x3) (fp.add RNE x12 x0)))))
(assert (fp.geq (fp.sub RNE (fp.sub RNE (fp.div RNE x4 x12) (fp.sub RNE x10 x11)) (fp.mul RNE (fp.neg x1) (fp.div RNE x5 x11))) (fp.mul RNE (fp.sub RNE (fp.mul RNE x9 x8) (fp.neg x10)) (fp.neg (fp.neg x6)))))
(assert (fp.leq (fp.div RNE (fp.sub RNE (fp.add RNE x5 x9) (fp.sub RNE x9 x4)) (fp.add RNE (fp.div RNE x8 x5) (fp.sub RNE x4 x10))) (fp.neg (fp.sub RNE (fp.div RNE x6 x1) (fp.div RNE x2 x9)))))
(assert (fp.gt (fp.mul RNE (fp.div RNE (fp.neg x10) (fp.mul RNE x11 x5)) (fp.neg (fp.add RNE x6 x4))) (fp.mul RNE (fp.sub RNE (fp.div RNE x10 x4) (fp.mul RNE x2 x1)) (fp.sub RNE (fp.mul RNE x5 x2) (fp.neg x3)))))
(assert (fp.leq (fp.mul RNE (fp.mul RNE (fp.add RNE x4 x9) (fp.sub RNE x7 x5)) (fp.add RNE (fp.neg x4) (fp.mul RNE x8 x5))) (fp.neg (fp.sub RNE (fp.mul RNE x3 x7) (fp.add RNE x6 x9)))))
(assert (fp.lt (fp.mul RNE (fp.add RNE (fp.add RNE x10 x7) (fp.sub RNE x5 x1)) (fp.mul RNE (fp.add RNE x3 x12) (fp.sub RNE x6 x9))) (fp.div RNE (fp.mul RNE (fp.sub RNE x2 x7) (fp.sub RNE x6 x12)) (fp.sub RNE (fp.mul RNE x7 x4) (fp.mul RNE x2 x4)))))
(assert (fp.leq (fp.neg (fp.div RNE (fp.div RNE x10 x7) (fp.add RNE x8 x9))) (fp.div RNE (fp.neg (fp.neg x5)) (fp.div RNE (fp.neg x3) (fp.neg x9)))))
(assert (fp.eq (fp.sub RNE (fp.add RNE (fp.neg x12) (fp.mul RNE x0 x10)) (fp.neg (fp.sub RNE x2 x8))) (fp.sub RNE (fp.neg (fp.neg x12)) (fp.add RNE (fp.neg x7) (fp.add RNE x8 x5)))))
(assert (fp.leq (fp.mul RNE (fp.div RNE (fp.div RNE x12 x3) (fp.sub RNE x9 x6)) (fp.add RNE (fp.div RNE x9 x0) (fp.neg x10))) (fp.mul RNE (fp.div RNE (fp.div RNE x2 x0) (fp.add RNE x7 x2)) (fp.div RNE (fp.neg x8) (fp.mul RNE x12 x9)))))
(assert (fp.geq (fp.add RNE (fp.div RNE (fp.sub RNE x9 x4) (fp.neg x0)) (fp.mul RNE (fp.mul RNE x6 x8) (fp.sub RNE x2 x4))) (fp.sub RNE (fp.add RNE (fp.div RNE x12 x11) (fp.add RNE x12 x3)) (fp.mul RNE (fp.div RNE x11 x12) (fp.neg x6)))))
(assert (fp.geq (fp.sub RNE (fp.mul RNE (fp.neg x3) (fp.neg x12)) (fp.div RNE (fp.add RNE x2 x10) (fp.sub RNE x0 x10))) (fp.mul RNE (fp.add RNE (fp.neg x9) (fp.add RNE x4 x12)) (fp.div RNE (fp.sub RNE x7 x0) (fp.add RNE x12 x7)))))
(assert (fp.gt (fp.mul RNE (fp.sub RNE (fp.neg x9) (fp.sub RNE x3 x2)) (fp.add RNE (fp.div RNE x4 x7) (fp.mul RNE x6 x3))) (fp.add RNE (fp.sub RNE (fp.add RNE x1 x12) (fp.div RNE x7 x0)) (fp.neg (fp.sub RNE x7 x12)))))
(check-sat)
