db/data/2425411230802279504119290163030925238.z3.out
-------------------
2500.143604949
